c *********************************
c * Circuit generated by BenCGen
c *
c * Parity_39
c *
c * Ports with 1 gate(s): 1
c * Ports with 2 gate(s): 39
c * Total gates: 40
c *********************************
p cnf 79 157
1 42 0
-1 -42 0
1 -41 0
42 -41 0
-1 -42 41 0
1 2 -43 0
-1 2 43 0
1 -2 43 0
-1 -2 -43 0
3 4 -44 0
-3 4 44 0
3 -4 44 0
-3 -4 -44 0
5 6 -45 0
-5 6 45 0
5 -6 45 0
-5 -6 -45 0
7 8 -46 0
-7 8 46 0
7 -8 46 0
-7 -8 -46 0
9 10 -47 0
-9 10 47 0
9 -10 47 0
-9 -10 -47 0
11 12 -48 0
-11 12 48 0
11 -12 48 0
-11 -12 -48 0
13 14 -49 0
-13 14 49 0
13 -14 49 0
-13 -14 -49 0
15 16 -50 0
-15 16 50 0
15 -16 50 0
-15 -16 -50 0
17 18 -51 0
-17 18 51 0
17 -18 51 0
-17 -18 -51 0
19 20 -52 0
-19 20 52 0
19 -20 52 0
-19 -20 -52 0
21 22 -53 0
-21 22 53 0
21 -22 53 0
-21 -22 -53 0
23 24 -54 0
-23 24 54 0
23 -24 54 0
-23 -24 -54 0
25 26 -55 0
-25 26 55 0
25 -26 55 0
-25 -26 -55 0
27 28 -56 0
-27 28 56 0
27 -28 56 0
-27 -28 -56 0
29 30 -57 0
-29 30 57 0
29 -30 57 0
-29 -30 -57 0
31 32 -58 0
-31 32 58 0
31 -32 58 0
-31 -32 -58 0
33 34 -59 0
-33 34 59 0
33 -34 59 0
-33 -34 -59 0
35 36 -60 0
-35 36 60 0
35 -36 60 0
-35 -36 -60 0
37 38 -61 0
-37 38 61 0
37 -38 61 0
-37 -38 -61 0
43 44 -62 0
-43 44 62 0
43 -44 62 0
-43 -44 -62 0
45 46 -63 0
-45 46 63 0
45 -46 63 0
-45 -46 -63 0
47 48 -64 0
-47 48 64 0
47 -48 64 0
-47 -48 -64 0
49 50 -65 0
-49 50 65 0
49 -50 65 0
-49 -50 -65 0
51 52 -66 0
-51 52 66 0
51 -52 66 0
-51 -52 -66 0
53 54 -67 0
-53 54 67 0
53 -54 67 0
-53 -54 -67 0
55 56 -68 0
-55 56 68 0
55 -56 68 0
-55 -56 -68 0
57 58 -69 0
-57 58 69 0
57 -58 69 0
-57 -58 -69 0
59 60 -70 0
-59 60 70 0
59 -60 70 0
-59 -60 -70 0
61 39 -71 0
-61 39 71 0
61 -39 71 0
-61 -39 -71 0
62 63 -72 0
-62 63 72 0
62 -63 72 0
-62 -63 -72 0
64 65 -73 0
-64 65 73 0
64 -65 73 0
-64 -65 -73 0
66 67 -74 0
-66 67 74 0
66 -67 74 0
-66 -67 -74 0
68 69 -75 0
-68 69 75 0
68 -69 75 0
-68 -69 -75 0
70 71 -76 0
-70 71 76 0
70 -71 76 0
-70 -71 -76 0
72 73 -77 0
-72 73 77 0
72 -73 77 0
-72 -73 -77 0
74 75 -78 0
-74 75 78 0
74 -75 78 0
-74 -75 -78 0
77 78 -79 0
-77 78 79 0
77 -78 79 0
-77 -78 -79 0
79 76 -40 0
-79 76 40 0
79 -76 40 0
-79 -76 -40 0
